
Gurobi 9.5.1 (linux64) logging started Wed Jun  8 03:02:09 2022

Set parameter LogFile to value "../results/logs/log_soc-catster.e_21_20_2022_06_08_00_53.log"
Gurobi Optimizer version 9.5.1 build v9.5.1rc2 (linux64)
Thread count: 8 physical cores, 8 logical processors, using up to 8 threads
Optimize a model with 4007 rows, 299368 columns and 167530 nonzeros
Model fingerprint: 0x2d8c6f04
Variable types: 0 continuous, 299368 integer (299368 binary)
Coefficient statistics:
  Matrix range     [1e+00, 2e+01]
  Objective range  [1e+00, 1e+00]
  Bounds range     [1e+00, 1e+00]
  RHS range        [1e+00, 2e+01]

User MIP start produced solution with objective 79035 (0.08s)
Loaded user MIP start with objective 79035

Presolve removed 2754 rows and 297430 columns
Presolve time: 0.15s
Presolved: 1253 rows, 1938 columns, 6239 nonzeros
Variable types: 0 continuous, 1938 integer (1573 binary)

Root relaxation: objective 7.917888e+04, 771 iterations, 0.00 seconds (0.00 work units)

    Nodes    |    Current Node    |     Objective Bounds      |     Work
 Expl Unexpl |  Obj  Depth IntInf | Incumbent    BestBd   Gap | It/Node Time

     0     0 79178.8836    0  243 79035.0000 79178.8836  0.18%     -    0s
H    0     0                    79069.000000 79178.8836  0.14%     -    0s
H    0     0                    79071.000000 79178.8836  0.14%     -    0s
H    0     0                    79076.000000 79160.7320  0.11%     -    0s

Cutting planes:
  Gomory: 79
  Cover: 11
  Implied bound: 17
  MIR: 88
  StrongCG: 10
  GUB cover: 51
  Zero half: 14
  RLT: 29
  Relax-and-lift: 4

Explored 1 nodes (785 simplex iterations) in 0.50 seconds (0.31 work units)
Thread count was 8 (of 8 available processors)

Solution count 4: 79076 79071 79069 79035 

Optimal solution found (tolerance 0.00e+00)
Best objective 7.907600000000e+04, best bound 7.907600000000e+04, gap 0.0000%
